results/real/sos1/mar_35_365.in
Version identifier: 22.1.0.0 | 2022-03-09 | 1a383f8ce
CPXPARAM_Threads                                 1
CPXPARAM_MIP_Strategy_VariableSelect             3
CPXPARAM_TimeLimit                               599.99998834200005
1 of 1 MIP starts provided solutions.
MIP start 'm1' defined initial solution with objective 76.0000.
Tried aggregator 2 times.
MIP Presolve eliminated 48 rows and 1478 columns.
MIP Presolve added 36 rows and 9 columns.
MIP Presolve modified 41 coefficients.
Aggregator did 9 substitutions.
Reduced MIP has 2547 rows, 3268 columns, and 92646 nonzeros.
Reduced MIP has 3268 binaries, 0 generals, 0 SOSs, and 0 indicators.
Presolve time = 0.12 sec. (182.47 ticks)
Probing time = 0.01 sec. (13.87 ticks)
Tried aggregator 1 time.
Detecting symmetries...
MIP Presolve modified 10 coefficients.
Reduced MIP has 2547 rows, 3268 columns, and 92764 nonzeros.
Reduced MIP has 3268 binaries, 0 generals, 0 SOSs, and 0 indicators.
Presolve time = 0.08 sec. (136.96 ticks)
Probing time = 0.01 sec. (13.87 ticks)
Clique table members: 1814.
MIP emphasis: balance optimality and feasibility.
MIP search method: dynamic search.
Parallel mode: none, using 1 thread.
Root relaxation solution time = 0.13 sec. (144.35 ticks)

        Nodes                                         Cuts/
   Node  Left     Objective  IInf  Best Integer    Best Bound    ItCnt     Gap

*     0+    0                           76.0000    60726.0000              --- 
      0     0      339.0000   706       76.0000      339.0000     1680  346.05%
      0     0      334.0000    70       76.0000      Fract: 1     2302  339.47%
      0     0      331.0571   554       76.0000       Cuts: 4     2550  335.60%
*     0+    0                          331.0000      331.0571             0.02%
      0     0        cutoff            331.0000      331.0571     2629    0.02%
Elapsed time = 1.72 sec. (1755.92 ticks, tree = 0.01 MB, solutions = 2)

Clique cuts applied:  1
Zero-half cuts applied:  1
Gomory fractional cuts applied:  1

Root node processing (before b&c):
  Real time             =    1.72 sec. (1756.40 ticks)
Sequential b&c:
  Real time             =    0.00 sec. (0.00 ticks)
                          ------------
Total (root+branch&cut) =    1.72 sec. (1756.40 ticks)
Primal:	331
Dual:	331
Status:	Optimal
Time:	1.74
Sequence:
	5
	9
	10
	0
	10
	9
	10
	4
	10
	0
	10
	9
	6
	9
	5
	4
	10
	0
	10
	9
	6
	9
	1
	0
	10
	9
	6
	4
	10
	0
	10
	9
	10
	0
	10
	4
	6
	0
	5
	9
	5
	0
	5
	9
	6
	9
	5
	9
	6
	9
	1
	9
	5
	0
	11
	9
	6
	4
	10
	0
	6
	9
	5
	4
	10
	0
	6
	9
	10
	4
	5
	0
	1
	4
	5
	9
	6
	9
	5
	9
	6
	9
	5
	9
	5
	0
	5
	9
	5
	9
	5
	9
	5
	4
	10
	4
	5
	9
	5
	4
	1
	0
	6
	4
	1
	4
	11
	4
	6
	0
	10
	4
	6
	9
	5
	0
	6
	4
	1
	4
	6
	9
	5
	4
	11
	4
	5
	9
	1
	9
	5
	4
	1
	4
	5
	0
	5
	9
	1
	0
	6
	9
	10
	4
	5
	9
	10
	4
	6
	0
	1
	4
	5
	9
	6
	4
	10
	4
	5
	0
	10
	4
	10
	9
	1
	0
	6
	4
	10
	0
	6
	9
	5
	0
	6
	9
	5
	9
	10
	0
	6
	9
	5
	0
	6
	9
	1
	9
	6
	9
	5
	9
	6
	0
	10
	4
	10
	9
	5
	0
	6
	9
	1
	0
	6
	9
	5
	9
	6
	9
	1
	9
	5
	0
	5
	9
	5
	0
	5
	9
	5
	0
	1
	4
	6
	0
	10
	9
	5
	4
	10
	0
	5
	9
	6
	9
	5
	0
	6
	4
	1
	0
	10
	9
	1
	0
	10
	4
	1
	9
	10
	0
	5
	4
	1
	0
	6
	4
	1
	0
	1
	9
	10
	4
	1
	9
	1
	0
	6
	4
	10
	4
	5
	9
	5
	4
	1
	9
	1
	4
	1
	0
	6
	9
	1
	0
	6
	9
	1
	9
	6
	9
	1
	9
	6
	9
	5
	9
	1
	0
	5
	9
	6
	9
	10
	9
	6
	4
	10
	4
	6
	9
	5
	4
	10
	0
	5
	9
	10
	4
	5
	9
	10
	0
	5
	9
	1
	9
	10
	9
	1
