results/real/sos1/mar_35_365.out
Version identifier: 22.1.1.0 | 2022-11-28 | 9160aff4d
CPXPARAM_Threads                                 1
CPXPARAM_MIP_Strategy_VariableSelect             3
CPXPARAM_TimeLimit                               599.99999370299997
1 of 1 MIP starts provided solutions.
MIP start 'm1' defined initial solution with objective 76.0000.
Tried aggregator 1 time.
MIP Presolve eliminated 19 rows and 1460 columns.
MIP Presolve modified 34 coefficients.
Reduced MIP has 2184 rows, 3285 columns, and 89485 nonzeros.
Reduced MIP has 3285 binaries, 0 generals, 0 SOSs, and 0 indicators.
Presolve time = 0.05 sec. (144.92 ticks)
Probing time = 0.01 sec. (13.93 ticks)
Tried aggregator 1 time.
Detecting symmetries...
MIP Presolve modified 9 coefficients.
Reduced MIP has 2184 rows, 3285 columns, and 89602 nonzeros.
Reduced MIP has 3285 binaries, 0 generals, 0 SOSs, and 0 indicators.
Presolve time = 0.05 sec. (133.60 ticks)
Probing time = 0.01 sec. (13.94 ticks)
Clique table members: 1451.
MIP emphasis: balance optimality and feasibility.
MIP search method: dynamic search.
Parallel mode: none, using 1 thread.
Root relaxation solution time = 0.03 sec. (58.07 ticks)

        Nodes                                         Cuts/
   Node  Left     Objective  IInf  Best Integer    Best Bound    ItCnt     Gap

*     0+    0                           76.0000    66795.0000              --- 
      0     0      365.0000   200       76.0000      365.0000      923  380.26%
*     0+    0                          365.0000      365.0000             0.00%
      0     0        cutoff            365.0000      365.0000      923    0.00%
Elapsed time = 0.24 sec. (532.56 ticks, tree = 0.01 MB, solutions = 2)

Root node processing (before b&c):
  Real time             =    0.24 sec. (532.75 ticks)
Sequential b&c:
  Real time             =    0.00 sec. (0.00 ticks)
                          ------------
Total (root+branch&cut) =    0.24 sec. (532.75 ticks)
Primal:	365
Dual:	365
Status:	Optimal
Time:	0.25
Sequence:
	0
	6
	4
	0
	1
	6
	9
	10
	10
	10
	4
	10
	10
	6
	9
	10
	10
	10
	9
	0
	1
	6
	4
	0
	9
	1
	6
	1
	4
	0
	6
	9
	9
	10
	9
	6
	0
	9
	1
	6
	10
	9
	10
	10
	6
	9
	10
	10
	9
	6
	1
	9
	9
	5
	4
	0
	6
	9
	5
	10
	6
	4
	0
	5
	6
	9
	5
	0
	6
	4
	9
	9
	10
	5
	1
	9
	6
	5
	1
	9
	1
	6
	5
	9
	5
	6
	1
	9
	5
	9
	6
	5
	9
	5
	6
	0
	4
	1
	4
	6
	11
	4
	0
	6
	4
	0
	9
	1
	6
	0
	4
	11
	6
	4
	10
	10
	4
	0
	6
	5
	9
	4
	6
	0
	5
	9
	4
	6
	0
	5
	9
	6
	0
	5
	4
	10
	0
	6
	4
	0
	5
	9
	6
	5
	9
	10
	4
	9
	6
	0
	1
	4
	6
	9
	0
	9
	10
	6
	10
	9
	9
	6
	5
	0
	4
	1
	1
	9
	6
	5
	9
	0
	6
	5
	9
	5
	5
	9
	6
	10
	0
	9
	5
	5
	9
	6
	4
	9
	4
	6
	1
	5
	9
	6
	4
	0
	4
	10
	6
	9
	10
	10
	6
	9
	0
	5
	9
	6
	4
	0
	9
	10
	6
	0
	4
	9
	10
	10
	6
	4
	10
	10
	10
	4
	1
	6
	4
	1
	4
	6
	0
	4
	1
	1
	4
	1
	1
	6
	9
	0
	4
	6
	11
	0
	4
	6
	0
	5
	9
	6
	0
	4
	5
	0
	1
	9
	0
	6
	1
	9
	5
	6
	9
	1
	5
	4
	1
	6
	9
	10
	10
	6
	9
	0
	10
	6
	4
	1
	1
	4
	6
	1
	0
	4
	6
	1
	5
	9
	5
	5
	9
	6
	1
	5
	9
	6
	10
	0
	9
	6
	5
	9
	5
	6
	10
	4
	10
	9
	6
	0
	9
	9
	1
	6
	0
	9
	1
	5
	1
	4
	6
	9
	5
	5
	0
	9
	6
	5
	9
	5
	5
	0
	9
	5
	6
	9
	5
	5
	9
	6
	5
	9
	5
	5
	9
	6
	5
	9
	5
	5
	9
	5
	6
	9
	0
	5
	4
	9
	0
	6
	4
	9
	10
	6
	0
